Problem:    
Rows:       260
Columns:    89 (72 integer, 72 binary)
Non-zeros:  812
Status:     INTEGER OPTIMAL
Objective:  value = 52.961889 (MINimum)

   No.   Row name        Activity     Lower bound   Upper bound
------ ------------    ------------- ------------- -------------
     1 r.5                   52.9619             0               
     2 r.6                  -983.321      -983.937               
     3 r.7                   1052.96             0               
     4 r.8                  -979.549      -980.165               
     5 r.9                   1052.96             0               
     6 r.10                  -970.76      -984.017               
     7 r.11                  52.9619             0               
     8 r.12                    29.24      -979.442               
     9 r.13                  1052.96             0               
    10 r.14                 -989.037      -999.172               
    11 r.15                  52.9619             0               
    12 r.16                 -997.452      -998.069               
    13 r.17                  1052.96             0               
    14 r.18                 -989.865      -998.209               
    15 r.19                  52.9619             0               
    16 r.20                 -994.473      -995.089               
    17 r.21                  1052.96             0               
    18 r.22                 -991.657      -992.273               
    19 r.23                  52.9619             0               
    20 r.24                  20.4513      -990.468               
    21 r.25                  1052.96             0               
    22 r.26                 -999.384      -999.384               
    23 r.27                  52.9619             0               
    24 r.28                 0.616444      -998.802               
    25 r.29                  1052.96             0               
    26 r.30                 -947.038      -976.278               
    27 r.31                  52.9619             0               
    28 r.32                  52.9619      -964.589               
    29 r.33                  52.9619             0               
    30 r.34                  52.9619        -976.6               
    31 r.35                  1052.96             0               
    32 r.36                 -947.038      -967.489               
    33 r.37                        1             1             = 
    34 r.38                        1             1             = 
    35 r.39                        1             1             = 
    36 r.40                        1             1             = 
    37 r.41                        1             1             = 
    38 r.42                        1             1             = 
    39 r.43                        1             1             = 
    40 r.44                        1             1             = 
    41 r.45                     1001             2               
    42 r.46                    -1001         -1001               
    43 r.47                  3012.56      -984.017               
    44 r.48                     1001             2               
    45 r.49                    -1001         -1001               
    46 r.50                  2008.79      -979.442               
    47 r.51                     1001             2               
    48 r.52                    -1001         -1001               
    49 r.53                  2994.28      -999.172               
    50 r.54                     1001             2               
    51 r.55                    -1001         -1001               
    52 r.56                  982.097      -998.069               
    53 r.57                     1001             2               
    54 r.58                    -1001         -1001               
    55 r.59                  2993.46      -998.209               
    56 r.60                     1001             2               
    57 r.61                    -1001         -1001               
    58 r.62                  985.076      -995.089               
    59 r.63                     1001             2               
    60 r.64                    -1001         -1001               
    61 r.65                  2991.66      -992.273               
    62 r.66                     1001             2               
    63 r.67                    -1001         -1001               
    64 r.68                     2000      -990.468               
    65 r.69                 -983.937      -983.937               
    66 r.70                 -980.165      -980.165               
    67 r.71                 -983.937      -983.937               
    68 r.72                 -980.165      -980.165               
    69 r.73                  36.2824      -976.278               
    70 r.74                  1036.28      -964.589               
    71 r.75                 -967.489      -976.278               
    72 r.76                  32.5106      -964.589               
    73 r.77                  1036.28        -976.6               
    74 r.78                  36.2824      -967.489               
    75 r.79                  32.5106        -976.6               
    76 r.80                 -967.489      -967.489               
    77 r.81                     1001             2               
    78 r.82                    -1001         -1001               
    79 r.83                  987.439        16.063               
    80 r.84                     1001             2               
    81 r.85                    -1001         -1001               
    82 r.86                  1991.21       19.8348               
    83 r.87                        2             2               
    84 r.88                       -2         -1001               
    85 r.89                 -18.2771      -999.172               
    86 r.90                     1000             2               
    87 r.91                    -1000         -1001               
    88 r.92                  973.308      -998.069               
    89 r.93                        2             2               
    90 r.94                       -2         -1001               
    91 r.95                 -19.1052      -998.209               
    92 r.96                     1000             2               
    93 r.97                    -1000         -1001               
    94 r.98                  976.287      -995.089               
    95 r.99                        2             2               
    96 r.100                      -2         -1001               
    97 r.101                -20.8965      -992.273               
    98 r.102                    1000             2               
    99 r.103                   -1000         -1001               
   100 r.104                 1991.21      -990.468               
   101 r.105                -971.376      -984.017               
   102 r.106                 28.6235      -979.442               
   103 r.107                -971.376      -984.017               
   104 r.108                 28.6235      -979.442               
   105 r.109                -976.278      -976.278               
   106 r.110                 23.7219      -964.589               
   107 r.111                -976.278      -976.278               
   108 r.112                 23.7219      -964.589               
   109 r.113                    1001             2               
   110 r.114                   -1001         -1001               
   111 r.115                 2023.72        -976.6               
   112 r.116                    1001             2               
   113 r.117                   -1001         -1001               
   114 r.118                 2023.72      -967.489               
   115 r.119                    1001             2               
   116 r.120                   -1001         -1001               
   117 r.121                 1005.72        16.063               
   118 r.122                    1001             2               
   119 r.123                   -1001         -1001               
   120 r.124                  3017.9       19.8348               
   121 r.125                       2             2               
   122 r.126                      -2         -1001               
   123 r.127                 18.2771       15.9829               
   124 r.128                    1000             2               
   125 r.129                   -1000         -1001               
   126 r.130                 3026.69        20.558               
   127 r.131                       2             2               
   128 r.132                      -2         -1001               
   129 r.133                 -0.8281      -998.209               
   130 r.134                    1000             2               
   131 r.135                   -1000         -1001               
   132 r.136                 2002.98      -995.089               
   133 r.137                       2             2               
   134 r.138                      -2         -1001               
   135 r.139                 -2.6194      -992.273               
   136 r.140                    1000             2               
   137 r.141                   -1000         -1001               
   138 r.142                  3017.9      -990.468               
   139 r.143                -989.654      -999.172               
   140 r.144                -998.069      -998.069               
   141 r.145                -989.654      -999.172               
   142 r.146                -998.069      -998.069               
   143 r.147                -958.001      -976.278               
   144 r.148                  41.999      -964.589               
   145 r.149                  50.414      -976.278               
   146 r.150                 1050.41      -964.589               
   147 r.151                  41.999        -976.6               
   148 r.152                -958.001      -967.489               
   149 r.153                 1050.41        -976.6               
   150 r.154                  50.414      -967.489               
   151 r.155                    1001             2               
   152 r.156                   -1001         -1001               
   153 r.157                 1006.54        16.063               
   154 r.158                    1001             2               
   155 r.159                   -1001         -1001               
   156 r.160                 3014.92       19.8348               
   157 r.161                       2             2               
   158 r.162                      -2         -1001               
   159 r.163                 19.1052       15.9829               
   160 r.164                    1000             2               
   161 r.165                   -1000         -1001               
   162 r.166                 3023.71        20.558               
   163 r.167                       2             2               
   164 r.168                      -2         -1001               
   165 r.169                  0.8281        0.8281               
   166 r.170                    1000             2               
   167 r.171                   -1000         -1001               
   168 r.172                 1997.02       1.93145               
   169 r.173                       2             2               
   170 r.174                      -2         -1001               
   171 r.175                 -1.7913      -992.273               
   172 r.176                    1000             2               
   173 r.177                   -1000         -1001               
   174 r.178                 3014.92      -990.468               
   175 r.179                -990.482      -998.209               
   176 r.180                -995.089      -995.089               
   177 r.181                -990.482      -998.209               
   178 r.182                -995.089      -995.089               
   179 r.183                -957.173      -976.278               
   180 r.184                 42.8271      -964.589               
   181 r.185                 47.4347      -976.278               
   182 r.186                 1047.43      -964.589               
   183 r.187                    1001             2               
   184 r.188                   -1001         -1001               
   185 r.189                 2042.83        -976.6               
   186 r.190                    1001             2               
   187 r.191                   -1001         -1001               
   188 r.192                 3047.43      -967.489               
   189 r.193                    1001             2               
   190 r.194                   -1001         -1001               
   191 r.195                 1008.34        16.063               
   192 r.196                    1001             2               
   193 r.197                   -1001         -1001               
   194 r.198                    2000       19.8348               
   195 r.199                       2             2               
   196 r.200                      -2         -1001               
   197 r.201                 20.8965       15.9829               
   198 r.202                    1000             2               
   199 r.203                   -1000         -1001               
   200 r.204                 2008.79        20.558               
   201 r.205                       2             2               
   202 r.206                      -2         -1001               
   203 r.207                  2.6194        0.8281               
   204 r.208                    1000             2               
   205 r.209                   -1000         -1001               
   206 r.210                 982.097       1.93145               
   207 r.211                       2             2               
   208 r.212                      -2         -1001               
   209 r.213                  1.7913        1.7913               
   210 r.214                    1000             2               
   211 r.215                   -1000         -1001               
   212 r.216                 985.076        4.9107               
   213 r.217                -992.273      -992.273               
   214 r.218                 19.8348      -990.468               
   215 r.219                -992.273      -992.273               
   216 r.220                 19.8348      -990.468               
   217 r.221                       2             2               
   218 r.222                      -2         -1001               
   219 r.223                -955.382      -976.278               
   220 r.224                    1000             2               
   221 r.225                   -1000         -1001               
   222 r.226                 2032.51      -964.589               
   223 r.227                 44.6184        -976.6               
   224 r.228                -955.382      -967.489               
   225 r.229                 32.5106        -976.6               
   226 r.230                -967.489      -967.489               
   227 r.231                -947.655      -976.278               
   228 r.232                 52.3454      -964.589               
   229 r.233                -947.655      -976.278               
   230 r.234                 52.3454      -964.589               
   231 r.235                       2             2               
   232 r.236                      -2         -1001               
   233 r.237                 955.382         7.727               
   234 r.238                    1000             2               
   235 r.239                   -1000         -1001               
   236 r.240                 1967.49        9.5319               
   237 r.241                    1001             2               
   238 r.242                   -1001         -1001               
   239 r.243                    2000        -976.6               
   240 r.244                    1001             2               
   241 r.245                   -1001         -1001               
   242 r.246                    2000      -967.489               
   243 r.247                    1001             2               
   244 r.248                   -1001         -1001               
   245 r.249                 1976.28       15.9829               
   246 r.250                    1001             2               
   247 r.251                   -1001         -1001               
   248 r.252                 1976.28        20.558               
   249 r.253                    1001             2               
   250 r.254                   -1001         -1001               
   251 r.255                 1957.17        1.7913               
   252 r.256                    1001             2               
   253 r.257                   -1001         -1001               
   254 r.258                 952.565        4.9107               
   255 r.259                    1001             2               
   256 r.260                   -1001         -1001               
   257 r.261                    2000       23.7219               
   258 r.262                    1001             2               
   259 r.263                   -1001         -1001               
   260 r.264                    2000       35.4105               

   No. Column name       Activity     Lower bound   Upper bound
------ ------------    ------------- ------------- -------------
     1 tt                    52.9619             0               
     2 s_1_1        *              0             0             1 
     3 t_1_1                 1036.28             0               
     4 s_1_8        *              0             0             1 
     5 s_1_7        *              1             0             1 
     6 s_2_1        *              1             0             1 
     7 t_2_1                 32.5106             0               
     8 s_2_8        *              1             0             1 
     9 s_2_7        *              0             0             1 
    10 s_1_2        *              1             0             1 
    11 t_1_2                 23.7219             0               
    12 s_2_2        *              0             0             1 
    13 t_2_2                 23.7219             0               
    14 s_1_3        *              1             0             1 
    15 t_1_3                  41.999             0               
    16 s_2_3        *              0             0             1 
    17 t_2_3                 1050.41             0               
    18 s_1_4        *              1             0             1 
    19 t_1_4                 42.8271             0               
    20 s_2_4        *              0             0             1 
    21 t_2_4                 1047.43             0               
    22 s_1_5        *              1             0             1 
    23 t_1_5                 44.6184             0               
    24 s_2_5        *              0             0             1 
    25 t_2_5                 32.5106             0               
    26 s_1_6        *              1             0             1 
    27 t_1_6                 52.3454             0               
    28 s_2_6        *              0             0             1 
    29 t_2_6                 52.3454             0               
    30 t_1_7                       0             0               
    31 t_2_7                       0             0               
    32 t_1_8                       0             0               
    33 t_2_8                       0             0               
    34 r_1_1_2      *              1             0             1 
    35 u_1_1_2      *              0             0             1 
    36 r_2_1_2      *              1             0             1 
    37 u_2_1_2      *              0             0             1 
    38 r_1_1_3      *              1             0             1 
    39 u_1_1_3      *              0             0             1 
    40 r_2_1_3      *              1             0             1 
    41 u_2_1_3      *              0             0             1 
    42 r_1_1_4      *              1             0             1 
    43 u_1_1_4      *              0             0             1 
    44 r_2_1_4      *              1             0             1 
    45 u_2_1_4      *              0             0             1 
    46 r_1_1_5      *              1             0             1 
    47 u_1_1_5      *              0             0             1 
    48 r_2_1_5      *              1             0             1 
    49 u_2_1_5      *              0             0             1 
    50 r_1_2_3      *              0             0             1 
    51 u_1_2_3      *              0             0             1 
    52 r_2_2_3      *              1             0             1 
    53 u_2_2_3      *              0             0             1 
    54 r_1_2_4      *              0             0             1 
    55 u_1_2_4      *              0             0             1 
    56 r_2_2_4      *              1             0             1 
    57 u_2_2_4      *              0             0             1 
    58 r_1_2_5      *              0             0             1 
    59 u_1_2_5      *              0             0             1 
    60 r_2_2_5      *              1             0             1 
    61 u_2_2_5      *              0             0             1 
    62 r_1_2_8      *              1             0             1 
    63 u_1_2_8      *              0             0             1 
    64 r_2_2_8      *              1             0             1 
    65 u_2_2_8      *              0             0             1 
    66 r_1_3_4      *              0             0             1 
    67 u_1_3_4      *              0             0             1 
    68 r_2_3_4      *              1             0             1 
    69 u_2_3_4      *              0             0             1 
    70 r_1_3_5      *              0             0             1 
    71 u_1_3_5      *              0             0             1 
    72 r_2_3_5      *              1             0             1 
    73 u_2_3_5      *              0             0             1 
    74 r_1_4_5      *              0             0             1 
    75 u_1_4_5      *              0             0             1 
    76 r_2_4_5      *              1             0             1 
    77 u_2_4_5      *              0             0             1 
    78 r_1_4_8      *              1             0             1 
    79 u_1_4_8      *              0             0             1 
    80 r_2_4_8      *              1             0             1 
    81 u_2_4_8      *              0             0             1 
    82 r_1_5_7      *              0             0             1 
    83 u_1_5_7      *              1             0             1 
    84 r_2_5_7      *              1             0             1 
    85 u_2_5_7      *              0             0             1 
    86 r_1_7_8      *              1             0             1 
    87 u_1_7_8      *              0             0             1 
    88 r_2_7_8      *              1             0             1 
    89 u_2_7_8      *              0             0             1 

Integer feasibility conditions:

KKT.PE: max.abs.err = 4.55e-13 on row 162
        max.rel.err = 7.46e-17 on row 162
        High quality

KKT.PB: max.abs.err = 1.14e-13 on row 140
        max.rel.err = 4.25e-16 on row 165
        High quality

End of output
